certificates/rado_a5_c171_N34.cnf
c Rad2 upper bound instance: x1 + 5*x2 - x3 = 171, interval [1,34]
p cnf 34 252
1 2 34 0
-1 -2 -34 0
2 3 34 0
-2 -3 -34 0
3 4 34 0
-3 -4 -34 0
4 5 34 0
-4 -5 -34 0
5 6 34 0
-5 -6 -34 0
1 7 33 0
-1 -7 -33 0
6 7 34 0
-6 -7 -34 0
2 8 33 0
-2 -8 -33 0
7 8 34 0
-7 -8 -34 0
3 9 33 0
-3 -9 -33 0
8 9 34 0
-8 -9 -34 0
4 10 33 0
-4 -10 -33 0
9 10 34 0
-9 -10 -34 0
5 11 33 0
-5 -11 -33 0
10 11 34 0
-10 -11 -34 0
1 12 32 0
-1 -12 -32 0
6 12 33 0
-6 -12 -33 0
11 12 34 0
-11 -12 -34 0
2 13 32 0
-2 -13 -32 0
7 13 33 0
-7 -13 -33 0
12 13 34 0
-12 -13 -34 0
3 14 32 0
-3 -14 -32 0
8 14 33 0
-8 -14 -33 0
13 14 34 0
-13 -14 -34 0
4 15 32 0
-4 -15 -32 0
9 15 33 0
-9 -15 -33 0
14 15 34 0
-14 -15 -34 0
5 16 32 0
-5 -16 -32 0
10 16 33 0
-10 -16 -33 0
15 16 34 0
-15 -16 -34 0
1 17 31 0
-1 -17 -31 0
6 17 32 0
-6 -17 -32 0
11 17 33 0
-11 -17 -33 0
16 17 34 0
-16 -17 -34 0
2 18 31 0
-2 -18 -31 0
7 18 32 0
-7 -18 -32 0
12 18 33 0
-12 -18 -33 0
17 18 34 0
-17 -18 -34 0
3 19 31 0
-3 -19 -31 0
8 19 32 0
-8 -19 -32 0
13 19 33 0
-13 -19 -33 0
18 19 34 0
-18 -19 -34 0
4 20 31 0
-4 -20 -31 0
9 20 32 0
-9 -20 -32 0
14 20 33 0
-14 -20 -33 0
19 20 34 0
-19 -20 -34 0
5 21 31 0
-5 -21 -31 0
10 21 32 0
-10 -21 -32 0
15 21 33 0
-15 -21 -33 0
20 21 34 0
-20 -21 -34 0
1 22 30 0
-1 -22 -30 0
6 22 31 0
-6 -22 -31 0
11 22 32 0
-11 -22 -32 0
16 22 33 0
-16 -22 -33 0
21 22 34 0
-21 -22 -34 0
2 23 30 0
-2 -23 -30 0
7 23 31 0
-7 -23 -31 0
12 23 32 0
-12 -23 -32 0
17 23 33 0
-17 -23 -33 0
22 23 34 0
-22 -23 -34 0
3 24 30 0
-3 -24 -30 0
8 24 31 0
-8 -24 -31 0
13 24 32 0
-13 -24 -32 0
18 24 33 0
-18 -24 -33 0
23 24 34 0
-23 -24 -34 0
4 25 30 0
-4 -25 -30 0
9 25 31 0
-9 -25 -31 0
14 25 32 0
-14 -25 -32 0
19 25 33 0
-19 -25 -33 0
24 25 34 0
-24 -25 -34 0
5 26 30 0
-5 -26 -30 0
10 26 31 0
-10 -26 -31 0
15 26 32 0
-15 -26 -32 0
20 26 33 0
-20 -26 -33 0
25 26 34 0
-25 -26 -34 0
1 27 29 0
-1 -27 -29 0
6 27 30 0
-6 -27 -30 0
11 27 31 0
-11 -27 -31 0
16 27 32 0
-16 -27 -32 0
21 27 33 0
-21 -27 -33 0
26 27 34 0
-26 -27 -34 0
2 28 29 0
-2 -28 -29 0
7 28 30 0
-7 -28 -30 0
12 28 31 0
-12 -28 -31 0
17 28 32 0
-17 -28 -32 0
22 28 33 0
-22 -28 -33 0
27 28 34 0
-27 -28 -34 0
3 29 0
-3 -29 0
8 29 30 0
-8 -29 -30 0
13 29 31 0
-13 -29 -31 0
18 29 32 0
-18 -29 -32 0
23 29 33 0
-23 -29 -33 0
28 29 34 0
-28 -29 -34 0
4 29 30 0
-4 -29 -30 0
9 30 0
-9 -30 0
14 30 31 0
-14 -30 -31 0
19 30 32 0
-19 -30 -32 0
24 30 33 0
-24 -30 -33 0
29 30 34 0
-29 -30 -34 0
5 29 31 0
-5 -29 -31 0
10 30 31 0
-10 -30 -31 0
15 31 0
-15 -31 0
20 31 32 0
-20 -31 -32 0
25 31 33 0
-25 -31 -33 0
30 31 34 0
-30 -31 -34 0
1 28 32 0
-1 -28 -32 0
6 29 32 0
-6 -29 -32 0
11 30 32 0
-11 -30 -32 0
16 31 32 0
-16 -31 -32 0
21 32 0
-21 -32 0
26 32 33 0
-26 -32 -33 0
31 32 34 0
-31 -32 -34 0
2 28 33 0
-2 -28 -33 0
7 29 33 0
-7 -29 -33 0
12 30 33 0
-12 -30 -33 0
17 31 33 0
-17 -31 -33 0
22 32 33 0
-22 -32 -33 0
27 33 0
-27 -33 0
32 33 34 0
-32 -33 -34 0
3 28 34 0
-3 -28 -34 0
8 29 34 0
-8 -29 -34 0
13 30 34 0
-13 -30 -34 0
18 31 34 0
-18 -31 -34 0
23 32 34 0
-23 -32 -34 0
28 33 34 0
-28 -33 -34 0
33 34 0
-33 -34 0
