certificates/rado_a5_c171_N34.drat
-34 0
33 0
-27 0
26 0
28 0
-20 0
-32 0
-22 0
-2 0
9 0
19 0
21 0
31 0
23 0
16 0
13 0
11 0
1 0
3 0
0
